16
28
30
248
28
59
201
330
41
44
0
204
44
59
23
0
0
67
64
0
118
20
34
32
351
55
55
97
0
174
53
88
44
18
196
39
32
52
0
81
83
62
195
58
67
30
27
323
18
107
0
35
227
46
28
936
35
27
2295
44
107
17
67
26
35
245
41
77
50
181
47
36
44
81
195
92
13
40
25
52
31
69
178
42
41
18
18
60
62
0
62
35
32
26
0
0
62
0
42
326
